#
# GLPK data file generated by parser.py.
#

set V := 1 2 3 4 5 6 7 8 9 10 11 12 13 14 15 16 17 18 19 20 21 22 23 24 25 26 27 28 29;

param d :=
   1 0
   2 1
   3 1
   4 1
   5 1
   6 1
   7 1
   8 1
   9 1
   10 1
   11 1
   12 1
   13 1
   14 1
   15 1
   16 1
   17 1
   18 1
   19 1
   20 1
   21 1
   22 1
   23 1
   24 1
   25 1
   26 1
   27 1
   28 1
   29 1
;

param l :=
   1 28
   2 4
   3 22
   4 28
   5 28
   6 12
   7 28
   8 3
   9 13
   10 19
   11 22
   12 20
   13 25
   14 28
   15 28
   16 28
   17 29
   18 28
   19 29
   20 28
   21 28
   22 13
   23 28
   24 28
   25 29
   26 10
   27 12
   28 28
   29 28
;

param custo :=
   1 1 0
   1 2 97
   1 3 205
   1 4 139
   1 5 86
   1 6 60
   1 7 220
   1 8 65
   1 9 111
   1 10 115
   1 11 227
   1 12 95
   1 13 82
   1 14 225
   1 15 168
   1 16 103
   1 17 266
   1 18 205
   1 19 149
   1 20 120
   1 21 58
   1 22 257
   1 23 152
   1 24 52
   1 25 180
   1 26 136
   1 27 82
   1 28 34
   1 29 145
   2 1 97
   2 2 0
   2 3 129
   2 4 103
   2 5 71
   2 6 105
   2 7 258
   2 8 154
   2 9 112
   2 10 65
   2 11 204
   2 12 150
   2 13 87
   2 14 176
   2 15 137
   2 16 142
   2 17 204
   2 18 148
   2 19 148
   2 20 49
   2 21 41
   2 22 211
   2 23 226
   2 24 116
   2 25 197
   2 26 89
   2 27 153
   2 28 124
   2 29 74
   3 1 205
   3 2 129
   3 3 0
   3 4 219
   3 5 125
   3 6 175
   3 7 386
   3 8 269
   3 9 134
   3 10 184
   3 11 313
   3 12 201
   3 13 215
   3 14 267
   3 15 248
   3 16 271
   3 17 274
   3 18 236
   3 19 272
   3 20 160
   3 21 151
   3 22 300
   3 23 350
   3 24 239
   3 25 322
   3 26 78
   3 27 276
   3 28 220
   3 29 60
   4 1 139
   4 2 103
   4 3 219
   4 4 0
   4 5 167
   4 6 182
   4 7 180
   4 8 162
   4 9 208
   4 10 39
   4 11 102
   4 12 227
   4 13 60
   4 14 86
   4 15 34
   4 16 96
   4 17 129
   4 18 69
   4 19 58
   4 20 60
   4 21 120
   4 22 119
   4 23 192
   4 24 114
   4 25 110
   4 26 192
   4 27 136
   4 28 173
   4 29 173
   5 1 86
   5 2 71
   5 3 125
   5 4 167
   5 5 0
   5 6 51
   5 7 296
   5 8 150
   5 9 42
   5 10 131
   5 11 268
   5 12 88
   5 13 131
   5 14 245
   5 15 201
   5 16 175
   5 17 275
   5 18 218
   5 19 202
   5 20 119
   5 21 50
   5 22 281
   5 23 238
   5 24 131
   5 25 244
   5 26 51
   5 27 166
   5 28 95
   5 29 69
   6 1 60
   6 2 105
   6 3 175
   6 4 182
   6 5 51
   6 6 0
   6 7 279
   6 8 114
   6 9 56
   6 10 150
   6 11 278
   6 12 46
   6 13 133
   6 14 266
   6 15 214
   6 16 162
   6 17 302
   6 18 242
   6 19 203
   6 20 146
   6 21 67
   6 22 300
   6 23 205
   6 24 111
   6 25 238
   6 26 98
   6 27 139
   6 28 52
   6 29 120
   7 1 220
   7 2 258
   7 3 386
   7 4 180
   7 5 296
   7 6 279
   7 7 0
   7 8 178
   7 9 328
   7 10 206
   7 11 147
   7 12 308
   7 13 172
   7 14 203
   7 15 165
   7 16 121
   7 17 251
   7 18 216
   7 19 122
   7 20 231
   7 21 249
   7 22 209
   7 23 111
   7 24 169
   7 25 72
   7 26 338
   7 27 144
   7 28 237
   7 29 331
   8 1 65
   8 2 154
   8 3 269
   8 4 162
   8 5 150
   8 6 114
   8 7 178
   8 8 0
   8 9 169
   8 10 151
   8 11 227
   8 12 133
   8 13 104
   8 14 242
   8 15 182
   8 16 84
   8 17 290
   8 18 230
   8 19 146
   8 20 165
   8 21 121
   8 22 270
   8 23 91
   8 24 48
   8 25 158
   8 26 200
   8 27 39
   8 28 64
   8 29 210
   9 1 111
   9 2 112
   9 3 134
   9 4 208
   9 5 42
   9 6 56
   9 7 328
   9 8 169
   9 9 0
   9 10 172
   9 11 309
   9 12 68
   9 13 169
   9 14 286
   9 15 242
   9 16 208
   9 17 315
   9 18 259
   9 19 240
   9 20 160
   9 21 90
   9 22 322
   9 23 260
   9 24 160
   9 25 281
   9 26 57
   9 27 192
   9 28 107
   9 29 90
   10 1 115
   10 2 65
   10 3 184
   10 4 39
   10 5 131
   10 6 150
   10 7 206
   10 8 151
   10 9 172
   10 10 0
   10 11 140
   10 12 195
   10 13 51
   10 14 117
   10 15 72
   10 16 104
   10 17 153
   10 18 93
   10 19 88
   10 20 25
   10 21 85
   10 22 152
   10 23 200
   10 24 104
   10 25 139
   10 26 154
   10 27 134
   10 28 149
   10 29 135
   11 1 227
   11 2 204
   11 3 313
   11 4 102
   11 5 268
   11 6 278
   11 7 147
   11 8 227
   11 9 309
   11 10 140
   11 11 0
   11 12 320
   11 13 146
   11 14 64
   11 15 68
   11 16 143
   11 17 106
   11 18 88
   11 19 81
   11 20 159
   11 21 219
   11 22 63
   11 23 216
   11 24 187
   11 25 88
   11 26 293
   11 27 191
   11 28 258
   11 29 272
   12 1 95
   12 2 150
   12 3 201
   12 4 227
   12 5 88
   12 6 46
   12 7 308
   12 8 133
   12 9 68
   12 10 195
   12 11 320
   12 12 0
   12 13 174
   12 14 311
   12 15 258
   12 16 196
   12 17 347
   12 18 288
   12 19 243
   12 20 192
   12 21 113
   12 22 345
   12 23 222
   12 24 144
   12 25 274
   12 26 124
   12 27 165
   12 28 71
   12 29 153
   13 1 82
   13 2 87
   13 3 215
   13 4 60
   13 5 131
   13 6 133
   13 7 172
   13 8 104
   13 9 169
   13 10 51
   13 11 146
   13 12 174
   13 13 0
   13 14 144
   13 15 86
   13 16 57
   13 17 189
   13 18 128
   13 19 71
   13 20 71
   13 21 82
   13 22 176
   13 23 150
   13 24 56
   13 25 114
   13 26 168
   13 27 83
   13 28 115
   13 29 160
   14 1 225
   14 2 176
   14 3 267
   14 4 86
   14 5 245
   14 6 266
   14 7 203
   14 8 242
   14 9 286
   14 10 117
   14 11 64
   14 12 311
   14 13 144
   14 14 0
   14 15 61
   14 16 165
   14 17 51
   14 18 32
   14 19 105
   14 20 127
   14 21 201
   14 22 36
   14 23 254
   14 24 196
   14 25 136
   14 26 260
   14 27 212
   14 28 258
   14 29 234
   15 1 168
   15 2 137
   15 3 248
   15 4 34
   15 5 201
   15 6 214
   15 7 165
   15 8 182
   15 9 242
   15 10 72
   15 11 68
   15 12 258
   15 13 86
   15 14 61
   15 15 0
   15 16 106
   15 17 110
   15 18 56
   15 19 49
   15 20 91
   15 21 153
   15 22 91
   15 23 197
   15 24 136
   15 25 94
   15 26 225
   15 27 151
   15 28 201
   15 29 205
   16 1 103
   16 2 142
   16 3 271
   16 4 96
   16 5 175
   16 6 162
   16 7 121
   16 8 84
   16 9 208
   16 10 104
   16 11 143
   16 12 196
   16 13 57
   16 14 165
   16 15 106
   16 16 0
   16 17 215
   16 18 159
   16 19 64
   16 20 126
   16 21 128
   16 22 190
   16 23 98
   16 24 53
   16 25 78
   16 26 218
   16 27 48
   16 28 127
   16 29 214
   17 1 266
   17 2 204
   17 3 274
   17 4 129
   17 5 275
   17 6 302
   17 7 251
   17 8 290
   17 9 315
   17 10 153
   17 11 106
   17 12 347
   17 13 189
   17 14 51
   17 15 110
   17 16 215
   17 17 0
   17 18 61
   17 19 155
   17 20 157
   17 21 235
   17 22 47
   17 23 305
   17 24 243
   17 25 186
   17 26 282
   17 27 261
   17 28 300
   17 29 252
   18 1 205
   18 2 148
   18 3 236
   18 4 69
   18 5 218
   18 6 242
   18 7 216
   18 8 230
   18 9 259
   18 10 93
   18 11 88
   18 12 288
   18 13 128
   18 14 32
   18 15 56
   18 16 159
   18 17 61
   18 18 0
   18 19 105
   18 20 100
   18 21 176
   18 22 66
   18 23 253
   18 24 183
   18 25 146
   18 26 231
   18 27 203
   18 28 239
   18 29 204
   19 1 149
   19 2 148
   19 3 272
   19 4 58
   19 5 202
   19 6 203
   19 7 122
   19 8 146
   19 9 240
   19 10 88
   19 11 81
   19 12 243
   19 13 71
   19 14 105
   19 15 49
   19 16 64
   19 17 155
   19 18 105
   19 19 0
   19 20 113
   19 21 152
   19 22 127
   19 23 150
   19 24 106
   19 25 52
   19 26 235
   19 27 112
   19 28 179
   19 29 221
   20 1 120
   20 2 49
   20 3 160
   20 4 60
   20 5 119
   20 6 146
   20 7 231
   20 8 165
   20 9 160
   20 10 25
   20 11 159
   20 12 192
   20 13 71
   20 14 127
   20 15 91
   20 16 126
   20 17 157
   20 18 100
   20 19 113
   20 20 0
   20 21 79
   20 22 163
   20 23 220
   20 24 119
   20 25 164
   20 26 135
   20 27 152
   20 28 153
   20 29 114
   21 1 58
   21 2 41
   21 3 151
   21 4 120
   21 5 50
   21 6 67
   21 7 249
   21 8 121
   21 9 90
   21 10 85
   21 11 219
   21 12 113
   21 13 82
   21 14 201
   21 15 153
   21 16 128
   21 17 235
   21 18 176
   21 19 152
   21 20 79
   21 21 0
   21 22 236
   21 23 201
   21 24 90
   21 25 195
   21 26 90
   21 27 127
   21 28 84
   21 29 91
   22 1 257
   22 2 211
   22 3 300
   22 4 119
   22 5 281
   22 6 300
   22 7 209
   22 8 270
   22 9 322
   22 10 152
   22 11 63
   22 12 345
   22 13 176
   22 14 36
   22 15 91
   22 16 190
   22 17 47
   22 18 66
   22 19 127
   22 20 163
   22 21 236
   22 22 0
   22 23 273
   22 24 226
   22 25 148
   22 26 296
   22 27 238
   22 28 291
   22 29 269
   23 1 152
   23 2 226
   23 3 350
   23 4 192
   23 5 238
   23 6 205
   23 7 111
   23 8 91
   23 9 260
   23 10 200
   23 11 216
   23 12 222
   23 13 150
   23 14 254
   23 15 197
   23 16 98
   23 17 305
   23 18 253
   23 19 150
   23 20 220
   23 21 201
   23 22 273
   23 23 0
   23 24 112
   23 25 130
   23 26 286
   23 27 74
   23 28 155
   23 29 291
   24 1 52
   24 2 116
   24 3 239
   24 4 114
   24 5 131
   24 6 111
   24 7 169
   24 8 48
   24 9 160
   24 10 104
   24 11 187
   24 12 144
   24 13 56
   24 14 196
   24 15 136
   24 16 53
   24 17 243
   24 18 183
   24 19 106
   24 20 119
   24 21 90
   24 22 226
   24 23 112
   24 24 0
   24 25 130
   24 26 178
   24 27 38
   24 28 75
   24 29 180
   25 1 180
   25 2 197
   25 3 322
   25 4 110
   25 5 244
   25 6 238
   25 7 72
   25 8 158
   25 9 281
   25 10 139
   25 11 88
   25 12 274
   25 13 114
   25 14 136
   25 15 94
   25 16 78
   25 17 186
   25 18 146
   25 19 52
   25 20 164
   25 21 195
   25 22 148
   25 23 130
   25 24 130
   25 25 0
   25 26 281
   25 27 120
   25 28 205
   25 29 270
   26 1 136
   26 2 89
   26 3 78
   26 4 192
   26 5 51
   26 6 98
   26 7 338
   26 8 200
   26 9 57
   26 10 154
   26 11 293
   26 12 124
   26 13 168
   26 14 260
   26 15 225
   26 16 218
   26 17 282
   26 18 231
   26 19 235
   26 20 135
   26 21 90
   26 22 296
   26 23 286
   26 24 178
   26 25 281
   26 26 0
   26 27 213
   26 28 145
   26 29 36
   27 1 82
   27 2 153
   27 3 276
   27 4 136
   27 5 166
   27 6 139
   27 7 144
   27 8 39
   27 9 192
   27 10 134
   27 11 191
   27 12 165
   27 13 83
   27 14 212
   27 15 151
   27 16 48
   27 17 261
   27 18 203
   27 19 112
   27 20 152
   27 21 127
   27 22 238
   27 23 74
   27 24 38
   27 25 120
   27 26 213
   27 27 0
   27 28 94
   27 29 217
   28 1 34
   28 2 124
   28 3 220
   28 4 173
   28 5 95
   28 6 52
   28 7 237
   28 8 64
   28 9 107
   28 10 149
   28 11 258
   28 12 71
   28 13 115
   28 14 258
   28 15 201
   28 16 127
   28 17 300
   28 18 239
   28 19 179
   28 20 153
   28 21 84
   28 22 291
   28 23 155
   28 24 75
   28 25 205
   28 26 145
   28 27 94
   28 28 0
   28 29 162
   29 1 145
   29 2 74
   29 3 60
   29 4 173
   29 5 69
   29 6 120
   29 7 331
   29 8 210
   29 9 90
   29 10 135
   29 11 272
   29 12 153
   29 13 160
   29 14 234
   29 15 205
   29 16 214
   29 17 252
   29 18 204
   29 19 221
   29 20 114
   29 21 91
   29 22 269
   29 23 291
   29 24 180
   29 25 270
   29 26 36
   29 27 217
   29 28 162
   29 29 0
;

end;
